c This is QMaxSAT 2017 based on 14.07
c This is Glucose 3.0
c This is MiniSat 2.2.0
c WARNING: for repeatability, setting FPU to use double precision
c card = mrwto, comp = 0, pmodel = 0, narr = 4, mct = 24, verb = 0
cr firstCPXsol 0 0 0
c top = 81479
c |  Number of variables:    1686295                                          |
c |  Number of clauses:      86445002                                         |
c |  Weight of hard clauses: 81479                                            |
c |  Number of soft clauses: 2208                                             |
c |  Number of unit soft clauses: 2208                                        |
c |  Maximum Cardinality (by unit): 325912       (325912      )               |
c last restart ## conflicts  :  472 184855 
o 1398 | cpuTime 17.5825 s
c Sum of weights = 81478
c A number of soft clauses remained = 552
c MRWTO encoding for Pseudo-Boolean Constraints
c sizeMax=1398
c No.0 Divisor=12	generated by pow1
c No.1 Divisor=12	generated by pow1
c No.2 Divisor=12	generated by pow1
c p0= 12	p1= 12	p2= 12	
c number of digits = 4
c linkingVar[0].size = 12, linkingVar[1].size = 12, linkingVar[2].size = 10, linkingVar[3].size = 1, 
c Pseudo-Boolean Constraints: 12051 variables and 115467 clauses
c Sum of weights = 81478
c A number of soft clauses remained = 552
c MRWTO encoding for Pseudo-Boolean Constraints
c sizeMax=1398
c No.0 Divisor=12	generated by pow1
c No.1 Divisor=12	generated by pow1
c No.2 Divisor=12	generated by pow1
c p0= 12	p1= 12	p2= 12	
c number of digits = 4
c linkingVar[0].size = 12, linkingVar[1].size = 12, linkingVar[2].size = 10, linkingVar[3].size = 1, 
c Pseudo-Boolean Constraints: 12051 variables and 115467 clauses
c Sum of weights = 81478
c A number of soft clauses remained = 552
c MRWTO encoding for Pseudo-Boolean Constraints
c sizeMax=1398
c No.0 Divisor=12	generated by pow1
c No.1 Divisor=12	generated by pow1
c No.2 Divisor=12	generated by pow1
c p0= 12	p1= 12	p2= 12	
c number of digits = 4
c linkingVar[0].size = 12, linkingVar[1].size = 12, linkingVar[2].size = 10, linkingVar[3].size = 1, 
c Pseudo-Boolean Constraints: 12051 variables and 115467 clauses
c Sum of weights = 81478
c A number of soft clauses remained = 552
c MRWTO encoding for Pseudo-Boolean Constraints
c sizeMax=1398
c No.0 Divisor=12	generated by pow1
c No.1 Divisor=12	generated by pow1
c No.2 Divisor=12	generated by pow1
c p0= 12	p1= 12	p2= 12	
c number of digits = 4
c linkingVar[0].size = 12, linkingVar[1].size = 12, linkingVar[2].size = 10, linkingVar[3].size = 1, 
c Pseudo-Boolean Constraints: 12051 variables and 115467 clauses
c last restart ## conflicts  :  118 187810 
o 1338 | cpuTime 18.4458 s
c last restart ## conflicts  :  6 190939 
o 1260 | cpuTime 19.2753 s
c last restart ## conflicts  :  103 194453 
o 995 | cpuTime 197.224 s
c last restart ## conflicts  :  367 193635 
o 874 | cpuTime 347.846 s
c last restart ## conflicts  :  233 201915 
o 843 | cpuTime 623.457 s
c last restart ## conflicts  :  460 206695 
o 803 | cpuTime 1544.68 s
c last restart ## conflicts  :  55 197040 
o 778 | cpuTime 1545.44 s
c last restart ## conflicts  :  164 198102 
o 757 | cpuTime 2651.51 s
s UNKNOWN
c Search is stopped by a limit (maybe time-limit)
cr positiVarArr: [ | 14@1(1->14) | 215@1(9->23) | 297@1(13->9) | 325@1(14->13) | 529@1(23->1) | 592@2(1->16) | 615@2(2->15) | 745@2(8->1) | 920@2(15->8) | 954@2(16->18) | 1003@2(18->19) | 1010@2(19->2) | 1164@3(1->12) | 1211@3(3->11) | 1225@3(4->1) | 1269@3(5->21) | 1276@3(6->4) | 1385@3(10->17) | 1397@3(11->5) | 1426@3(12->10) | 1539@3(17->3) | 1638@3(21->6) | 1750@4(1->22) | 1896@4(7->24) | 2191@4(20->7) | 2252@4(22->20) | 2281@4(24->1) | ]
cr the 1-th chain: [ 1->14->13->9->23->1 ] (#non-depot=4) {#cumul.=5}
cr the 2-th chain: [ 1->16->18->19->2->15->8->1 ] (#non-depot=6) {#cumul.=11}
cr the 3-th chain: [ 1->12->10->17->3->11->5->21->6->4->1 ] (#non-depot=9) {#cumul.=20}
cr the 4-th chain: [ 1->22->20->7->24->1 ] (#non-depot=4) {#cumul.=24}
c Latest Answer = 0 by 9 loops
c restarts              : 33870
c conflicts             : 4741547        (1319 /sec)
c decisions             : 34156799       (0.00 % random) (9503 /sec)
c propagations          : 20395708346    (5674387 /sec)
c conflict literals     : 698906362      (27.49 % deleted)
c Memory used           : 9348.00 MB
c CPU time              : 3594.35 s
